GLPSOL--GLPK LP/MIP Solver 5.0
Parameter(s) specified in the command line:
 --lp ../modeles/5_144.lp --log 5_144.log
Reading problem data from '../modeles/5_144.lp'...
741 rows, 1450 columns, 5055 non-zeros
720 integer variables, all of which are binary
2202 lines were read
GLPK Integer Optimizer 5.0
741 rows, 1450 columns, 5055 non-zeros
720 integer variables, all of which are binary
Preprocessing...
710 constraint coefficient(s) were reduced
741 rows, 1445 columns, 5050 non-zeros
720 integer variables, all of which are binary
Scaling...
 A: min|aij| =  7.716e-04  max|aij| =  4.000e+00  ratio =  5.184e+03
GM: min|aij| =  1.179e-01  max|aij| =  8.485e+00  ratio =  7.200e+01
EQ: min|aij| =  1.389e-02  max|aij| =  1.000e+00  ratio =  7.200e+01
2N: min|aij| =  1.235e-02  max|aij| =  1.714e+00  ratio =  1.388e+02
Constructing initial basis...
Size of triangular part is 741
Solving LP relaxation...
GLPK Simplex Optimizer 5.0
741 rows, 1445 columns, 5050 non-zeros
      0: obj =   1.000000000e+01 inf =   2.450e+01 (11)
     94: obj =   2.974042266e-01 inf =   0.000e+00 (0)
*   298: obj =  -2.235690236e+00 inf =   1.499e-15 (0)
OPTIMAL LP SOLUTION FOUND
Integer optimization begins...
Long-step dual simplex will be used
+   298: mip =     not found yet >=              -inf        (1; 0)
+   304: >>>>>  -2.235690236e+00 >=  -2.235690236e+00 < 0.1% (5; 0)
+   304: mip =  -2.235690236e+00 >=     tree is empty   0.0% (0; 9)
INTEGER OPTIMAL SOLUTION FOUND
Time used:   0.0 secs
Memory used: 2.1 Mb (2179479 bytes)
